(define-fun e0 () (_ BitVec 1) (_ bv0 1))
(declare-fun c1 () (_ BitVec 1))
(define-fun e2 () Bool (= e0 c1))
(define-fun e3 () (_ BitVec 48) (_ bv0 48))
(declare-fun c4 () (_ BitVec 48))
(define-fun e5 () Bool (= e3 c4))
(declare-fun c6 () (_ BitVec 48))
(define-fun e7 () Bool (= e3 c6))
(declare-fun c8 () (_ BitVec 48))
(define-fun e9 () Bool (= e3 c8))
(declare-fun c10 () (_ BitVec 48))
(define-fun e11 () Bool (= e3 c10))
(declare-fun c12 () (_ BitVec 16))
(define-fun e13 () (_ BitVec 18) ((_ zero_extend 2) c12))
(define-fun e14 () (_ BitVec 18) (_ bv65536 18))
(define-fun e15 () Bool (bvult e13 e14))
(define-fun e16 () Bool (and e11 e15))
(define-fun e17 () Bool (and e9 e16))
(define-fun e18 () Bool (and e7 e17))
(define-fun e19 () Bool (and e5 e18))
(define-fun e20 () Bool (and e2 e19))
(assert e20)
(declare-fun c21 () (_ BitVec 16))
(define-fun e22 () (_ BitVec 16) (bvmul c21 c12))
(define-fun e23 () (_ BitVec 1) (bvneg (_ bv1 1)))
(define-fun e24 () (_ BitVec 44) (_ bv5864062014805 44))
(define-fun e25 () (_ BitVec 27) ((_ zero_extend 11) c21))
(define-fun e26 () (_ BitVec 1) ((_ extract 26 26) e25))
(define-fun e27 () (_ BitVec 28) (concat e26 e25))
(define-fun e28 () (_ BitVec 29) (concat e26 e27))
(define-fun e29 () (_ BitVec 30) (concat e26 e28))
(define-fun e30 () (_ BitVec 31) (concat e26 e29))
(define-fun e31 () (_ BitVec 32) (concat e26 e30))
(define-fun e32 () (_ BitVec 33) (concat e26 e31))
(define-fun e33 () (_ BitVec 34) (concat e26 e32))
(define-fun e34 () (_ BitVec 35) (concat e26 e33))
(define-fun e35 () (_ BitVec 36) (concat e26 e34))
(define-fun e36 () (_ BitVec 37) (concat e26 e35))
(define-fun e37 () (_ BitVec 38) (concat e26 e36))
(define-fun e38 () (_ BitVec 39) (concat e26 e37))
(define-fun e39 () (_ BitVec 40) (concat e26 e38))
(define-fun e40 () (_ BitVec 41) (concat e26 e39))
(define-fun e41 () (_ BitVec 42) (concat e26 e40))
(define-fun e42 () (_ BitVec 43) (concat e26 e41))
(define-fun e43 () (_ BitVec 44) (concat e26 e42))
(define-fun e44 () (_ BitVec 45) (concat e26 e43))
(define-fun e45 () (_ BitVec 1) ((_ extract 17 17) e13))
(define-fun e46 () (_ BitVec 19) (concat e45 e13))
(define-fun e47 () (_ BitVec 20) (concat e45 e46))
(define-fun e48 () (_ BitVec 21) (concat e45 e47))
(define-fun e49 () (_ BitVec 22) (concat e45 e48))
(define-fun e50 () (_ BitVec 23) (concat e45 e49))
(define-fun e51 () (_ BitVec 24) (concat e45 e50))
(define-fun e52 () (_ BitVec 25) (concat e45 e51))
(define-fun e53 () (_ BitVec 26) (concat e45 e52))
(define-fun e54 () (_ BitVec 27) (concat e45 e53))
(define-fun e55 () (_ BitVec 28) (concat e45 e54))
(define-fun e56 () (_ BitVec 29) (concat e45 e55))
(define-fun e57 () (_ BitVec 30) (concat e45 e56))
(define-fun e58 () (_ BitVec 31) (concat e45 e57))
(define-fun e59 () (_ BitVec 32) (concat e45 e58))
(define-fun e60 () (_ BitVec 33) (concat e45 e59))
(define-fun e61 () (_ BitVec 34) (concat e45 e60))
(define-fun e62 () (_ BitVec 35) (concat e45 e61))
(define-fun e63 () (_ BitVec 36) (concat e45 e62))
(define-fun e64 () (_ BitVec 37) (concat e45 e63))
(define-fun e65 () (_ BitVec 38) (concat e45 e64))
(define-fun e66 () (_ BitVec 39) (concat e45 e65))
(define-fun e67 () (_ BitVec 40) (concat e45 e66))
(define-fun e68 () (_ BitVec 41) (concat e45 e67))
(define-fun e69 () (_ BitVec 42) (concat e45 e68))
(define-fun e70 () (_ BitVec 43) (concat e45 e69))
(define-fun e71 () (_ BitVec 44) (concat e45 e70))
(define-fun e72 () (_ BitVec 45) (concat e45 e71))
(define-fun e73 () (_ BitVec 45) (bvmul e44 e72))
(define-fun e74 () (_ BitVec 44) ((_ extract 43 0) e73))
(define-fun e75 () (_ BitVec 44) (bvand e24 e74))
(define-fun e76 () (_ BitVec 45) (concat e23 e75))
(define-fun e77 () (_ BitVec 46) (concat e23 e76))
(define-fun e78 () (_ BitVec 47) (concat e23 e77))
(define-fun e79 () (_ BitVec 48) (concat e23 e78))
(define-fun e80 () (_ BitVec 3) (_ bv0 3))
(define-fun e81 () (_ BitVec 1) ((_ extract 44 44) e73))
(define-fun e82 () (_ BitVec 1) (bvnot e81))
(define-fun e83 () (_ BitVec 44) (bvneg (_ bv5864062014806 44)))
(define-fun e84 () (_ BitVec 44) (bvand e83 e74))
(define-fun e85 () (_ BitVec 45) (concat e82 e84))
(define-fun e86 () (_ BitVec 48) (concat e80 e85))
(define-fun e87 () (_ BitVec 48) (bvor e79 e86))
(define-fun e88 () (_ BitVec 12) ((_ extract 23 12) e87))
(define-fun e89 () (_ BitVec 13) ((_ zero_extend 1) e88))
(define-fun e90 () (_ BitVec 12) ((_ extract 11 0) e87))
(define-fun e91 () (_ BitVec 13) ((_ zero_extend 1) e90))
(define-fun e92 () (_ BitVec 1) ((_ extract 12 12) e91))
(define-fun e93 () (_ BitVec 13) ((_ zero_extend 12) e92))
(define-fun e94 () (_ BitVec 13) (bvadd e89 e93))
(define-fun e95 () (_ BitVec 12) ((_ extract 11 0) e94))
(define-fun e96 () (_ BitVec 24) (concat e95 e90))
(define-fun e97 () (_ BitVec 16) ((_ extract 15 0) e96))
(define-fun e98 () Bool (= e22 e97))
(define-fun e99 () Bool (not e98))
(assert e99)
(check-sat)
